21
357 366 
450 474 
363 273 
258 283 355 
273 445 495 
414 466 320 
307 252 263 
370 366 350 
259 268 430 
251 292 298 
275 361 275 
472 271 272 
366 347 439 
372 303 254 
299 274 395 
419 473 272 
444 255 269 
315 350 351 
262 298 252 
410 287 252 
261 269 288 
